 Code  1032
 Dimension, Fixed Cost
   100        3000
 Facility, Client, Transportation Cost
     1        1           1
     1        7           4
     1       33           4
     1       34           3
     1       35           2
     1       54           4
     1       57           1
     1       58           3
     1       71           1
     1       96           0
     2       19           2
     2       29           3
     2       45           0
     2       50           2
     2       51           4
     2       70           0
     2       74           3
     2       77           2
     2       85           3
     2       98           2
     3        2           2
     3        3           0
     3       12           0
     3       14           4
     3       34           2
     3       41           4
     3       56           4
     3       86           3
     3       97           0
     4        4           1
     4       15           3
     4       44           4
     4       47           2
     4       51           4
     4       55           4
     4       56           0
     4       62           3
     4       64           4
     4       77           3
     4       83           1
     4       97           0
     5       16           0
     5       60           1
     5       87           3
     5       92           2
     5       95           3
     6        7           1
     6        8           1
     6       15           2
     6       22           1
     6       24           1
     6       27           4
     6       39           3
     6       40           2
     6       42           3
     6       46           1
     6       49           2
     6       67           4
     6       70           4
     6       71           1
     6       73           1
     6       77           1
     6       79           3
     6       85           3
     6       94           2
     7       13           1
     7       29           4
     7       36           1
     7       37           0
     7       43           2
     7       45           2
     7       64           2
     7       95           2
     8       20           1
     8       27           3
     8       31           4
     8       41           4
     8       45           2
     8       66           3
     8       68           1
     8       72           1
     8       93           0
     9       23           3
     9       27           3
     9       32           1
     9       41           2
     9       69           3
     9       84           2
     9       93           4
    10        7           0
    10       20           4
    10       21           1
    10       31           1
    10       32           4
    10       38           1
    10       40           4
    10       43           3
    10       49           1
    10       67           0
    10       69           2
    10       82           0
    10       84           0
    10       86           3
    10       93           2
    11       23           2
    11       24           1
    11       52           2
    11       78           1
    11       79           2
    12        5           2
    12        6           0
    12       20           3
    12       25           4
    12       29           0
    12       31           0
    12       38           2
    12       40           1
    12       43           3
    12       47           0
    12       50           2
    12       51           0
    12       55           4
    12       59           3
    12       81           3
    13       10           0
    13       33           3
    13       38           1
    13       54           1
    13       56           0
    13       59           2
    13       67           2
    14        1           2
    14        3           1
    14        4           2
    14       32           3
    14       36           0
    14       38           4
    14       39           3
    14       59           1
    14       65           3
    14       67           4
    14       70           3
    14       88           2
    14       93           3
    14       97           4
    15       14           1
    15       26           3
    15       43           2
    15       45           4
    15       48           2
    15       85           0
    15       90           0
    15       92           4
    15       95           1
    16        2           3
    16        5           3
    16       11           1
    16       18           1
    16       48           4
    16       73           2
    16       79           1
    16       88           2
    16       94           4
    16       98           1
    17        2           4
    17       37           1
    17       42           2
    17       47           4
    17       61           0
    17       68           3
    17       76           3
    17       90           4
    18        6           0
    18       18           2
    18       21           2
    18       39           0
    18       65           3
    18       87           2
    18       91           4
    19        9           4
    19       17           3
    19       19           2
    19       41           3
    19       57           3
    19       60           3
    19       81           1
    19       83           1
    19       85           0
    19       92           3
    20       27           1
    20       43           1
    20       45           2
    20       49           0
    20       52           4
    20       61           1
    20       67           1
    20       68           4
    20       81           1
    20       92           2
    21        7           1
    21       16           4
    21       17           2
    21       31           3
    21       47           0
    21       55           2
    21       62           1
    21       63           3
    21       65           2
    21       66           1
    21       74           3
    21       83           0
    21       84           1
    21       95           3
    21      100           0
    22        1           4
    22       13           4
    22       15           4
    22       16           4
    22       28           3
    22       48           3
    22       50           1
    22       64           0
    22       71           0
    22       79           3
    22       94           3
    23        3           2
    23       15           0
    23       19           2
    23       25           1
    23       30           3
    23       34           1
    23       36           2
    23       48           1
    23       53           0
    23       54           2
    23       73           1
    23       82           2
    23       90           0
    23       96           4
    24        5           2
    24       18           2
    24       48           2
    24       63           1
    24       66           4
    24       77           0
    24       86           1
    24       95           2
    24      100           1
    25       15           4
    25       22           1
    25       24           2
    25       35           0
    25       37           4
    25       38           0
    25       55           3
    25       70           2
    25       73           4
    25       78           1
    25       83           3
    25       95           1
    25       96           0
    25      100           4
    26       11           2
    26       18           4
    26       28           0
    26       34           2
    26       37           2
    26       42           0
    26       51           0
    26       71           2
    26       75           4
    26       79           3
    26       96           4
    27        3           1
    27       28           3
    27       32           3
    27       55           1
    27       76           2
    27       89           2
    27       91           1
    28       16           3
    28       22           2
    28       25           1
    28       71           0
    28       90           4
    28       97           1
    29       37           1
    29       46           4
    29       48           0
    29       55           4
    29       60           3
    29       64           3
    29      100           2
    30       36           1
    30       47           1
    30       78           1
    30       86           1
    31       14           4
    31       26           2
    31       29           0
    31       34           0
    31       40           2
    31       70           2
    32        4           3
    32       12           3
    32       22           1
    32       35           0
    32       41           0
    32       44           2
    32       51           0
    32       57           0
    32       61           3
    32       65           0
    32       71           0
    32       86           1
    33        8           0
    33       15           2
    33       27           0
    33       38           3
    33       44           1
    33       74           2
    33       77           1
    33       80           0
    33       84           0
    33       85           0
    33       99           1
    34       13           4
    34       35           1
    34       55           1
    34       56           1
    34       66           0
    34       98           3
    34      100           2
    35        6           0
    35       46           4
    35       67           2
    35       73           1
    35       74           1
    35       77           3
    35       82           2
    35       85           1
    35       91           2
    35      100           0
    36        7           0
    36       23           0
    36       29           4
    36       36           0
    36       37           3
    36       38           3
    36       39           0
    36       51           1
    36       52           0
    36       61           2
    36       64           3
    36       68           0
    36       78           3
    36       87           3
    36       91           3
    36       97           3
    36       98           3
    37       35           1
    37       42           0
    37       58           0
    37       59           4
    37       61           3
    37       66           0
    37       76           3
    37       82           2
    37       87           1
    37       90           1
    38        1           4
    38       10           3
    38       11           4
    38       17           0
    38       27           2
    38       36           2
    38       53           0
    38       56           2
    38       66           0
    38       71           1
    38       75           1
    38       76           3
    38       79           3
    38       88           1
    38       91           4
    38       93           1
    38       97           0
    39       46           1
    39       77           3
    39       86           1
    39       98           3
    39      100           2
    40       10           0
    40       34           1
    40       60           0
    40       98           0
    41        5           4
    41        9           2
    41       19           1
    41       21           3
    41       22           3
    41       26           3
    41       27           4
    41       28           2
    41       37           3
    41       45           4
    41       53           2
    41       60           3
    41       62           0
    41       94           1
    42        8           0
    42       12           2
    42       24           1
    42       54           2
    42       56           0
    42       57           0
    42       68           2
    42       80           0
    43        8           3
    43       23           1
    43       48           2
    43       52           4
    43       58           0
    43       60           2
    43       65           2
    43       78           3
    43       85           1
    43       99           0
    44       24           2
    44       32           3
    44       39           2
    44       47           2
    44       50           2
    44       60           3
    44       92           4
    44       99           3
    44      100           2
    45        3           1
    45       20           3
    45       26           0
    45       37           3
    45       41           3
    45       42           1
    45       44           0
    45       46           3
    45       56           3
    45       64           2
    45       69           3
    45       70           3
    45       72           0
    45       89           1
    46        8           0
    46       29           0
    46       33           4
    46       40           4
    46       42           0
    46       50           3
    46       55           4
    46       62           4
    46       68           1
    46       73           4
    47        5           1
    47       22           4
    47       23           4
    47       25           0
    47       29           0
    47       35           0
    47       49           0
    47       51           0
    47       55           2
    47       72           2
    47       84           0
    47       87           4
    47       89           0
    47       96           1
    47       98           3
    48        2           2
    48       12           0
    48       14           1
    48       18           4
    48       19           2
    48       27           3
    48       52           0
    48       53           0
    48       57           4
    48       63           0
    48       81           1
    48       87           0
    49        4           3
    49        7           2
    49       10           2
    49       11           4
    49       12           2
    49       24           1
    49       43           4
    49       49           3
    50       21           2
    50       63           0
    50       65           3
    50       74           2
    50       79           0
    50       86           4
    50       96           1
    50       97           1
    51       41           3
    51       73           1
    51       74           4
    52       11           0
    52       40           0
    52       57           1
    52       69           0
    52       81           1
    52      100           4
    53        3           1
    53        4           4
    53       13           4
    53       37           3
    53       38           0
    53       47           3
    53       53           0
    53       65           1
    53       78           2
    53       88           4
    54        7           0
    54       15           4
    54       18           2
    54       44           3
    54       45           2
    54       67           4
    54       70           3
    54       88           1
    54       97           3
    55       12           1
    55       22           1
    55       25           1
    55       45           1
    55       52           4
    55       82           1
    55       88           2
    56        1           3
    56        4           2
    56       17           3
    56       23           0
    56       30           3
    56       42           1
    56       54           3
    56       62           4
    56       66           0
    56       68           1
    56       73           3
    56       90           1
    57       17           3
    57       31           4
    57       34           4
    57       40           4
    57       54           4
    57       55           4
    57       57           1
    57       59           0
    57       63           3
    57       74           4
    57       82           4
    57       84           3
    57      100           1
    58        9           3
    58       10           3
    58       13           1
    58       44           0
    58       49           2
    58       51           4
    58       53           3
    58       66           4
    58       75           3
    58       85           1
    58       87           2
    58       93           3
    59        2           1
    59        9           1
    59       25           1
    59       30           2
    59       31           4
    59       38           3
    59       44           2
    59       49           3
    59       61           2
    59       89           2
    59       94           2
    60        9           1
    60       11           4
    60       23           3
    60       25           4
    60       30           2
    60       82           3
    61       10           3
    61       12           2
    61       31           4
    61       34           4
    61       67           1
    61       71           4
    61       78           1
    61       79           1
    61       90           4
    62        2           3
    62        3           1
    62       30           1
    62       35           0
    62       37           1
    62       44           4
    62       58           1
    62       68           3
    62       73           0
    63        4           4
    63       14           3
    63       18           2
    63       69           2
    63       75           1
    63       91           0
    64        2           3
    64       10           4
    64       17           1
    64       32           2
    64       33           4
    64       35           3
    64       40           1
    64       42           1
    64       46           1
    64       65           0
    64       70           3
    64       72           3
    64       86           0
    64       94           2
    64       99           2
    65        8           0
    65       11           3
    65       13           3
    65       20           0
    65       28           2
    65       36           0
    65       43           1
    65       63           0
    65       75           2
    65       81           4
    65       84           3
    65       87           3
    65       94           4
    65       98           2
    66       33           1
    66       50           3
    66       67           3
    66       92           2
    67        4           3
    67       24           3
    67       26           4
    67       33           4
    67       42           0
    67       57           0
    67       67           1
    67       69           1
    67       72           4
    67       78           3
    67       83           1
    67       84           4
    67       89           1
    67       90           0
    67       96           2
    68        8           2
    68       14           0
    68       16           4
    68       25           1
    68       28           0
    68       30           2
    68       35           3
    68       39           0
    68       42           2
    68       80           1
    68       83           0
    68       97           4
    69       27           3
    69       33           3
    69       39           4
    69       46           2
    69       71           3
    69       78           2
    69       79           2
    69       94           4
    70        4           2
    70        6           4
    70       19           0
    70       45           0
    70       46           1
    70       65           3
    70       66           3
    70       82           4
    70       89           1
    71        6           1
    71        7           4
    71        8           4
    71       14           3
    71       17           3
    71       21           0
    71       36           4
    71       41           2
    71       50           4
    71       52           2
    71       57           3
    71       92           1
    71       98           1
    72        5           4
    72       31           2
    72       35           4
    72       48           0
    72       49           1
    72       61           1
    72       62           2
    72       72           1
    72       76           0
    72       77           2
    72       80           4
    72       82           2
    72       90           4
    73       13           4
    73       15           0
    73       19           3
    73       53           4
    73       54           2
    73       64           1
    73       71           3
    73       81           2
    73       96           3
    73       97           1
    74       12           2
    74       18           3
    74       22           3
    74       24           2
    74       25           3
    74       47           3
    74       48           2
    74       50           0
    74       59           3
    74       74           4
    75        3           2
    75        8           4
    75       10           1
    75       13           0
    75       17           2
    75       18           1
    75       19           3
    75       26           2
    75       41           0
    75       58           1
    75       59           3
    75       70           0
    75       74           4
    75       75           2
    75       80           2
    75       87           1
    75       95           1
    75       99           4
    76       10           3
    76       11           4
    76       13           1
    76       16           4
    76       21           2
    76       29           4
    76       32           3
    76       40           4
    76       58           4
    76       76           0
    76       81           1
    76       83           0
    77       21           3
    77       24           4
    77       28           2
    77       54           0
    77       61           1
    77       62           0
    77       63           1
    77       80           0
    77       91           3
    77       95           4
    77       98           2
    78       16           4
    78       20           0
    78       23           4
    78       81           4
    78       89           2
    78       91           1
    78       93           2
    79        2           3
    79        4           0
    79       16           4
    79       46           1
    79       54           1
    79       70           3
    79       77           4
    80        5           2
    80        9           2
    80       16           4
    80       32           0
    80       33           4
    80       61           0
    80       65           4
    81        1           0
    81        2           4
    81        9           2
    81       17           2
    81       43           2
    81       80           3
    81       93           2
    82        5           2
    82        7           2
    82       14           4
    82       33           3
    82       39           1
    82       59           0
    82       63           4
    82       69           4
    82       74           4
    82       78           0
    82       85           3
    82       88           1
    83        6           4
    83       23           3
    83       28           1
    83       48           0
    83       56           4
    83       64           1
    83       82           1
    83       85           0
    84        6           3
    84        8           0
    84       28           4
    84       36           2
    84       45           0
    84       50           0
    84       52           0
    84       75           2
    84       87           4
    84       89           1
    84       91           0
    84       99           0
    85        9           2
    85       11           3
    85       34           0
    85       46           0
    85       59           1
    85       63           2
    85       80           3
    85       86           3
    86       12           3
    86       16           2
    86       32           2
    86       49           4
    86       58           2
    86       62           2
    86       88           4
    86       96           2
    87       19           0
    87       26           4
    87       39           0
    87       75           3
    87       79           0
    87       81           2
    87       92           4
    88        9           2
    88       12           3
    88       21           3
    88       28           0
    88       30           2
    88       38           3
    88       41           2
    88       53           4
    88       62           2
    88       68           2
    88       76           0
    88       83           2
    88       92           0
    89        9           2
    89       29           0
    89       40           2
    89       54           4
    89       69           3
    89       76           1
    89       86           1
    89       93           0
    90       26           0
    90       27           1
    90       30           2
    90       39           0
    90       52           0
    90       60           2
    90       61           4
    90       75           4
    90       80           4
    90       83           4
    90       89           3
    91       10           2
    91       13           1
    91       15           2
    91       29           1
    91       36           2
    91       51           0
    91       60           4
    91       80           3
    91       94           0
    92       23           4
    92       47           2
    92       53           0
    92       66           0
    92       89           1
    92       91           3
    93        1           4
    93        3           1
    93       14           3
    93       17           4
    93       30           4
    93       34           1
    93       50           0
    93       59           1
    93       64           0
    93       72           2
    93       73           3
    93       75           4
    93       76           1
    93       92           1
    94        1           4
    94        2           0
    94        5           1
    94       11           3
    94       15           3
    94       19           2
    94       20           4
    94       25           2
    94       56           2
    94       62           4
    94       69           3
    95        1           0
    95        3           1
    95        7           4
    95       20           3
    95       33           4
    95       44           2
    95       47           1
    95       53           3
    95       88           0
    95       96           0
    95       99           2
    96       20           2
    96       22           3
    96       52           4
    96       56           3
    96       58           1
    96       64           0
    96       95           1
    97        1           2
    97        6           2
    97       14           2
    97       21           2
    97       26           0
    97       31           1
    97       44           2
    97       76           4
    97       93           2
    97       99           3
    98        5           0
    98        6           1
    98       18           4
    98       20           0
    98       26           4
    98       51           1
    98       57           0
    98       58           1
    98       68           2
    98       72           2
    98       77           1
    98       84           4
    98       94           0
    98       99           4
    99       22           0
    99       24           4
    99       31           0
    99       32           4
    99       43           4
    99       60           4
    99       63           1
    99       69           4
    99       72           3
    99       88           0
    99       90           3
   100        6           1
   100       21           3
   100       30           3
   100       43           3
   100       49           3
   100       58           4
   100       72           1
   100       83           3
   100       84           1
   100       95           4
   100       99           1
